NAME          INSERTION-SORT
ROWS
 N  OBJ
 L  C1
 L  C2
 L  C3
 L  C4
COLUMNS
    X1   OBJ  1.0   C1  1.0
    X2   OBJ  1.0   C1  -1.0   C2  1.0
    X3   OBJ  1.0   C2  -1.0   C3  1.0
    X4   OBJ  1.0   C3  -1.0   C4  1.0
    X5   OBJ  1.0   C4  -1.0
RHS
    RHS  C1  0.0
    RHS  C2  0.0
    RHS  C3  0.0
    RHS  C4  0.0
BOUNDS
ENDATA
